open_stacks/wbo_15_30_1.sol
objective = 4;
s = [1, 6, 27, 30, 7, 17, 24, 28, 10, 12, 18, 16, 9, 20, 22, 23, 25, 19, 2, 3, 5, 8, 11, 4, 13, 15, 14, 21, 26, 29];
